sat
(:max-memory          18.43
 :memory              18.33
 :nlsat-arith-var     6
 :nlsat-atoms         6
 :nlsat-bool-var      1
 :nlsat-clauses       6
 :nlsat-propagations  6
 :nlsat-stages        7
 :num-allocs          50717
 :rlimit-count        1288
 :solve-eqs-elim-vars 2
 :solve-eqs-steps     2
 :time                0.00
 :total-time          0.02)
